\* Source Pyomo model name=unknown *\

max 
objective:
+1 theta
+1 f

s.t.

c_e_da_bidding_price_:
+1 b_da
= -47.0

c_u_rt_bidding_price_:
+1 b_rt_next
<= -80.0

c_e_da_Q_:
+1 Q_da
= 26888.0

c_e_rt_b_:
+1 b_rt
= -47.0

c_e_rt_q_:
+1 q_rt
= 21022.0

c_e_rt_E_:
+1 E_1
= 0.0

c_e_State_SOC_:
+1 b_S(0)
+2 b_S(1)
+4 b_S(2)
+8 b_S(3)
+16 b_S(4)
+32 b_S(5)
+64 b_S(6)
+128 b_S(7)
+256 b_S(8)
+512 b_S(9)
+1024 b_S(10)
+2048 b_S(11)
+4096 b_S(12)
+8192 b_S(13)
+16384 b_S(14)
+32768 b_S(15)
+65536 b_S(16)
-0.95 c
+1.0526315789473684 d
= 31534.0

c_u_State_SOC_UB_:
+1 b_S(0)
+2 b_S(1)
+4 b_S(2)
+8 b_S(3)
+16 b_S(4)
+32 b_S(5)
+64 b_S(6)
+128 b_S(7)
+256 b_S(8)
+512 b_S(9)
+1024 b_S(10)
+2048 b_S(11)
+4096 b_S(12)
+8192 b_S(13)
+16384 b_S(14)
+32768 b_S(15)
+65536 b_S(16)
<= 56759.67

c_l_State_SOC_LB_:
+1 b_S(0)
+2 b_S(1)
+4 b_S(2)
+8 b_S(3)
+16 b_S(4)
+32 b_S(5)
+64 b_S(6)
+128 b_S(7)
+256 b_S(8)
+512 b_S(9)
+1024 b_S(10)
+2048 b_S(11)
+4096 b_S(12)
+8192 b_S(13)
+16384 b_S(14)
+32768 b_S(15)
+65536 b_S(16)
>= 6306.63

c_e_State_b(0_0)_:
+1 b_b(0_0)
= 0.0

c_e_State_b(0_1)_:
+1 b_b(0_1)
= 0.0

c_e_State_b(0_2)_:
+1 b_b(0_2)
= 0.0

c_e_State_b(0_3)_:
+1 b_b(0_3)
= 0.0

c_e_State_b(0_4)_:
+1 b_b(0_4)
= 1.0

c_e_State_b(0_5)_:
+1 b_b(0_5)
= 0.0

c_e_State_b(0_6)_:
+1 b_b(0_6)
= 1.0

c_e_State_b(0_7)_:
+1 b_b(0_7)
= 0.0

c_e_State_b(1_0)_:
+1 b_b(1_0)
= 0.0

c_e_State_b(1_1)_:
+1 b_b(1_1)
= 0.0

c_e_State_b(1_2)_:
+1 b_b(1_2)
= 0.0

c_e_State_b(1_3)_:
+1 b_b(1_3)
= 0.0

c_e_State_b(1_4)_:
+1 b_b(1_4)
= 1.0

c_e_State_b(1_5)_:
+1 b_b(1_5)
= 0.0

c_e_State_b(1_6)_:
+1 b_b(1_6)
= 1.0

c_e_State_b(1_7)_:
+1 b_b(1_7)
= 0.0

c_e_State_b(2_0)_:
+1 b_b(2_0)
= 0.0

c_e_State_b(2_1)_:
+1 b_b(2_1)
= 0.0

c_e_State_b(2_2)_:
+1 b_b(2_2)
= 0.0

c_e_State_b(2_3)_:
+1 b_b(2_3)
= 0.0

c_e_State_b(2_4)_:
+1 b_b(2_4)
= 1.0

c_e_State_b(2_5)_:
+1 b_b(2_5)
= 0.0

c_e_State_b(2_6)_:
+1 b_b(2_6)
= 1.0

c_e_State_b(2_7)_:
+1 b_b(2_7)
= 0.0

c_e_State_Q(0_0)_:
+1 b_Q(0_0)
= 0.0

c_e_State_Q(0_1)_:
+1 b_Q(0_1)
= 0.0

c_e_State_Q(0_2)_:
+1 b_Q(0_2)
= 0.0

c_e_State_Q(0_3)_:
+1 b_Q(0_3)
= 0.0

c_e_State_Q(0_4)_:
+1 b_Q(0_4)
= 0.0

c_e_State_Q(0_5)_:
+1 b_Q(0_5)
= 0.0

c_e_State_Q(0_6)_:
+1 b_Q(0_6)
= 0.0

c_e_State_Q(0_7)_:
+1 b_Q(0_7)
= 0.0

c_e_State_Q(0_8)_:
+1 b_Q(0_8)
= 0.0

c_e_State_Q(0_9)_:
+1 b_Q(0_9)
= 0.0

c_e_State_Q(0_10)_:
+1 b_Q(0_10)
= 0.0

c_e_State_Q(0_11)_:
+1 b_Q(0_11)
= 0.0

c_e_State_Q(0_12)_:
+1 b_Q(0_12)
= 0.0

c_e_State_Q(0_13)_:
+1 b_Q(0_13)
= 0.0

c_e_State_Q(0_14)_:
+1 b_Q(0_14)
= 0.0

c_e_State_Q(1_0)_:
+1 b_Q(1_0)
= 1.0

c_e_State_Q(1_1)_:
+1 b_Q(1_1)
= 1.0

c_e_State_Q(1_2)_:
+1 b_Q(1_2)
= 1.0

c_e_State_Q(1_3)_:
+1 b_Q(1_3)
= 1.0

c_e_State_Q(1_4)_:
+1 b_Q(1_4)
= 0.0

c_e_State_Q(1_5)_:
+1 b_Q(1_5)
= 0.0

c_e_State_Q(1_6)_:
+1 b_Q(1_6)
= 1.0

c_e_State_Q(1_7)_:
+1 b_Q(1_7)
= 0.0

c_e_State_Q(1_8)_:
+1 b_Q(1_8)
= 1.0

c_e_State_Q(1_9)_:
+1 b_Q(1_9)
= 0.0

c_e_State_Q(1_10)_:
+1 b_Q(1_10)
= 0.0

c_e_State_Q(1_11)_:
+1 b_Q(1_11)
= 0.0

c_e_State_Q(1_12)_:
+1 b_Q(1_12)
= 0.0

c_e_State_Q(1_13)_:
+1 b_Q(1_13)
= 1.0

c_e_State_Q(1_14)_:
+1 b_Q(1_14)
= 0.0

c_e_State_Q(2_0)_:
+1 b_Q(2_0)
= 0.0

c_e_State_Q(2_1)_:
+1 b_Q(2_1)
= 0.0

c_e_State_Q(2_2)_:
+1 b_Q(2_2)
= 0.0

c_e_State_Q(2_3)_:
+1 b_Q(2_3)
= 0.0

c_e_State_Q(2_4)_:
+1 b_Q(2_4)
= 0.0

c_e_State_Q(2_5)_:
+1 b_Q(2_5)
= 0.0

c_e_State_Q(2_6)_:
+1 b_Q(2_6)
= 0.0

c_e_State_Q(2_7)_:
+1 b_Q(2_7)
= 0.0

c_e_State_Q(2_8)_:
+1 b_Q(2_8)
= 0.0

c_e_State_Q(2_9)_:
+1 b_Q(2_9)
= 0.0

c_e_State_Q(2_10)_:
+1 b_Q(2_10)
= 0.0

c_e_State_Q(2_11)_:
+1 b_Q(2_11)
= 0.0

c_e_State_Q(2_12)_:
+1 b_Q(2_12)
= 0.0

c_e_State_Q(2_13)_:
+1 b_Q(2_13)
= 0.0

c_e_State_Q(2_14)_:
+1 b_Q(2_14)
= 0.0

c_e_State_q_:
+1 b_q(0)
+2 b_q(1)
+4 b_q(2)
+8 b_q(3)
+16 b_q(4)
+32 b_q(5)
+64 b_q(6)
+128 b_q(7)
+256 b_q(8)
+512 b_q(9)
+1024 b_q(10)
+2048 b_q(11)
+4096 b_q(12)
+8192 b_q(13)
+16384 b_q(14)
+32768 b_q(15)
+65536 b_q(16)
-1 q_rt_next
= 21022.0

c_e_State_b_rt_:
-1 b_rt_next
+1 b_b_rt(0)
+2 b_b_rt(1)
+4 b_b_rt(2)
+8 b_b_rt(3)
+16 b_b_rt(4)
+32 b_b_rt(5)
+64 b_b_rt(6)
+128 b_b_rt(7)
= 0

c_e_State_q_rt_:
-1 q_rt_next
+1 b_q_rt(0)
+2 b_q_rt(1)
+4 b_q_rt(2)
+8 b_q_rt(3)
+16 b_q_rt(4)
+32 b_q_rt(5)
+64 b_q_rt(6)
+128 b_q_rt(7)
+256 b_q_rt(8)
+512 b_q_rt(9)
+1024 b_q_rt(10)
+2048 b_q_rt(11)
+4096 b_q_rt(12)
+8192 b_q_rt(13)
+16384 b_q_rt(14)
+32768 b_q_rt(15)
+65536 b_q_rt(16)
= 0

c_e_State_E_:
+1 b_E(0)
+2 b_E(1)
+4 b_E(2)
+8 b_E(3)
+16 b_E(4)
+32 b_E(5)
+64 b_E(6)
+128 b_E(7)
+256 b_E(8)
+512 b_E(9)
+1024 b_E(10)
+2048 b_E(11)
+4096 b_E(12)
+8192 b_E(13)
+16384 b_E(14)
= 8964

c_u_overbid_:
+1 b_q(0)
+2 b_q(1)
+4 b_q(2)
+8 b_q(3)
+16 b_q(4)
+32 b_q(5)
+64 b_q(6)
+128 b_q(7)
+256 b_q(8)
+512 b_q(9)
+1024 b_q(10)
+2048 b_q(11)
+4096 b_q(12)
+8192 b_q(13)
+16384 b_q(14)
+32768 b_q(15)
+65536 b_q(16)
<= 35415.8917757641

c_u_next_q_rt_:
+1 q_rt_next
<= 29985.49423276657

c_u_generation_:
-1 E_1
+1 g
<= 0

c_u_charge_:
+1 c
-1 g
<= 0

c_e_electricity_supply_:
+1 c
-1 d
-1 g
+1 u
= 0

c_u_market_clearing_1_:
+1 b_rt
+1 n_rt
<= 100.2150319380103

c_u_market_clearing_2_:
-1 b_rt
-180.2150319380103 n_rt
<= -99.2150319380103

c_u_market_clearing_3_:
-1 q_rt
+1 Q_rt
<= 0

c_u_market_clearing_4_:
-28389.2787526407 n_rt
+1 Q_rt
<= 0

c_u_market_clearing_5_:
+1 q_rt
+28389.2787526407 n_rt
-1 Q_rt
<= 28389.2787526407

c_e_dispatch_:
-1 Q_rt
+1 Q_c
= 0

c_l_binarize_1_1(0)_:
+1 w(0)
>= 0

c_l_binarize_1_1(1)_:
+1 w(1)
>= 0

c_l_binarize_1_1(2)_:
+1 w(2)
>= 0

c_l_binarize_1_1(3)_:
+1 w(3)
>= 0

c_l_binarize_1_1(4)_:
+1 w(4)
>= 0

c_l_binarize_1_1(5)_:
+1 w(5)
>= 0

c_l_binarize_1_1(6)_:
+1 w(6)
>= 0

c_l_binarize_1_1(7)_:
+1 w(7)
>= 0

c_u_binarize_1_2(0)_:
-1 u
+1 w(0)
<= 0

c_u_binarize_1_2(1)_:
-1 u
+1 w(1)
<= 0

c_u_binarize_1_2(2)_:
-1 u
+1 w(2)
<= 0

c_u_binarize_1_2(3)_:
-1 u
+1 w(3)
<= 0

c_u_binarize_1_2(4)_:
-1 u
+1 w(4)
<= 0

c_u_binarize_1_2(5)_:
-1 u
+1 w(5)
<= 0

c_u_binarize_1_2(6)_:
-1 u
+1 w(6)
<= 0

c_u_binarize_1_2(7)_:
-1 u
+1 w(7)
<= 0

c_u_binarize_1_3(0)_:
+1 w(0)
<= 28389.2787526407

c_u_binarize_1_3(1)_:
+1 w(1)
<= 28389.2787526407

c_u_binarize_1_3(2)_:
+1 w(2)
<= 28389.2787526407

c_u_binarize_1_3(3)_:
+1 w(3)
<= 28389.2787526407

c_u_binarize_1_3(4)_:
+1 w(4)
<= -0.0

c_u_binarize_1_3(5)_:
+1 w(5)
<= 28389.2787526407

c_u_binarize_1_3(6)_:
+1 w(6)
<= -0.0

c_u_binarize_1_3(7)_:
+1 w(7)
<= 0.0

c_u_binarize_1_4(0)_:
+1 u
-1 w(0)
<= 0

c_u_binarize_1_4(1)_:
+1 u
-1 w(1)
<= 0

c_u_binarize_1_4(2)_:
+1 u
-1 w(2)
<= 0

c_u_binarize_1_4(3)_:
+1 u
-1 w(3)
<= 0

c_u_binarize_1_4(4)_:
+1 u
-1 w(4)
<= 28389.2787526407

c_u_binarize_1_4(5)_:
+1 u
-1 w(5)
<= 0

c_u_binarize_1_4(6)_:
+1 u
-1 w(6)
<= 28389.2787526407

c_u_binarize_1_4(7)_:
+1 u
-1 w(7)
<= 28389.2787526407

c_l_binarize_2_1(0)_:
+1 h(0)
>= 0

c_l_binarize_2_1(1)_:
+1 h(1)
>= 0

c_l_binarize_2_1(2)_:
+1 h(2)
>= 0

c_l_binarize_2_1(3)_:
+1 h(3)
>= 0

c_l_binarize_2_1(4)_:
+1 h(4)
>= 0

c_l_binarize_2_1(5)_:
+1 h(5)
>= 0

c_l_binarize_2_1(6)_:
+1 h(6)
>= 0

c_l_binarize_2_1(7)_:
+1 h(7)
>= 0

c_u_binarize_2_2(0)_:
+1 h(0)
-1 m_1
<= 0

c_u_binarize_2_2(1)_:
+1 h(1)
-1 m_1
<= 0

c_u_binarize_2_2(2)_:
+1 h(2)
-1 m_1
<= 0

c_u_binarize_2_2(3)_:
+1 h(3)
-1 m_1
<= 0

c_u_binarize_2_2(4)_:
+1 h(4)
-1 m_1
<= 0

c_u_binarize_2_2(5)_:
+1 h(5)
-1 m_1
<= 0

c_u_binarize_2_2(6)_:
+1 h(6)
-1 m_1
<= 0

c_u_binarize_2_2(7)_:
+1 h(7)
-1 m_1
<= 0

c_u_binarize_2_3(0)_:
+1 h(0)
<= 28389.2787526407

c_u_binarize_2_3(1)_:
+1 h(1)
<= 28389.2787526407

c_u_binarize_2_3(2)_:
+1 h(2)
<= 28389.2787526407

c_u_binarize_2_3(3)_:
+1 h(3)
<= 28389.2787526407

c_u_binarize_2_3(4)_:
+1 h(4)
<= 0.0

c_u_binarize_2_3(5)_:
+1 h(5)
<= 28389.2787526407

c_u_binarize_2_3(6)_:
+1 h(6)
<= 0.0

c_u_binarize_2_3(7)_:
+1 h(7)
<= 0.0

c_u_binarize_2_4(0)_:
-1 h(0)
+1 m_1
<= 0

c_u_binarize_2_4(1)_:
-1 h(1)
+1 m_1
<= 0

c_u_binarize_2_4(2)_:
-1 h(2)
+1 m_1
<= 0

c_u_binarize_2_4(3)_:
-1 h(3)
+1 m_1
<= 0

c_u_binarize_2_4(4)_:
-1 h(4)
+1 m_1
<= 28389.2787526407

c_u_binarize_2_4(5)_:
-1 h(5)
+1 m_1
<= 0

c_u_binarize_2_4(6)_:
-1 h(6)
+1 m_1
<= 28389.2787526407

c_u_binarize_2_4(7)_:
-1 h(7)
+1 m_1
<= 28389.2787526407

c_l_binarize_3_1(0)_:
+1 k(0)
>= 0

c_l_binarize_3_1(1)_:
+1 k(1)
>= 0

c_l_binarize_3_1(2)_:
+1 k(2)
>= 0

c_l_binarize_3_1(3)_:
+1 k(3)
>= 0

c_l_binarize_3_1(4)_:
+1 k(4)
>= 0

c_l_binarize_3_1(5)_:
+1 k(5)
>= 0

c_l_binarize_3_1(6)_:
+1 k(6)
>= 0

c_l_binarize_3_1(7)_:
+1 k(7)
>= 0

c_u_binarize_3_2(0)_:
+1 k(0)
-1 m_2
<= 0

c_u_binarize_3_2(1)_:
+1 k(1)
-1 m_2
<= 0

c_u_binarize_3_2(2)_:
+1 k(2)
-1 m_2
<= 0

c_u_binarize_3_2(3)_:
+1 k(3)
-1 m_2
<= 0

c_u_binarize_3_2(4)_:
+1 k(4)
-1 m_2
<= 0

c_u_binarize_3_2(5)_:
+1 k(5)
-1 m_2
<= 0

c_u_binarize_3_2(6)_:
+1 k(6)
-1 m_2
<= 0

c_u_binarize_3_2(7)_:
+1 k(7)
-1 m_2
<= 0

c_u_binarize_3_3(0)_:
+1 k(0)
<= 28389.2787526407

c_u_binarize_3_3(1)_:
+1 k(1)
<= 28389.2787526407

c_u_binarize_3_3(2)_:
+1 k(2)
<= 28389.2787526407

c_u_binarize_3_3(3)_:
+1 k(3)
<= 28389.2787526407

c_u_binarize_3_3(4)_:
+1 k(4)
<= 0.0

c_u_binarize_3_3(5)_:
+1 k(5)
<= 28389.2787526407

c_u_binarize_3_3(6)_:
+1 k(6)
<= 0.0

c_u_binarize_3_3(7)_:
+1 k(7)
<= 0.0

c_u_binarize_3_4(0)_:
-1 k(0)
+1 m_2
<= 0

c_u_binarize_3_4(1)_:
-1 k(1)
+1 m_2
<= 0

c_u_binarize_3_4(2)_:
-1 k(2)
+1 m_2
<= 0

c_u_binarize_3_4(3)_:
-1 k(3)
+1 m_2
<= 0

c_u_binarize_3_4(4)_:
-1 k(4)
+1 m_2
<= 28389.2787526407

c_u_binarize_3_4(5)_:
-1 k(5)
+1 m_2
<= 0

c_u_binarize_3_4(6)_:
-1 k(6)
+1 m_2
<= 28389.2787526407

c_u_binarize_3_4(7)_:
-1 k(7)
+1 m_2
<= 28389.2787526407

c_l_binarize_4_1(0)_:
+1 o(0)
>= 0

c_l_binarize_4_1(1)_:
+1 o(1)
>= 0

c_l_binarize_4_1(2)_:
+1 o(2)
>= 0

c_l_binarize_4_1(3)_:
+1 o(3)
>= 0

c_l_binarize_4_1(4)_:
+1 o(4)
>= 0

c_l_binarize_4_1(5)_:
+1 o(5)
>= 0

c_l_binarize_4_1(6)_:
+1 o(6)
>= 0

c_l_binarize_4_1(7)_:
+1 o(7)
>= 0

c_u_binarize_4_2(0)_:
+1 o(0)
-1 m_3
<= 0

c_u_binarize_4_2(1)_:
+1 o(1)
-1 m_3
<= 0

c_u_binarize_4_2(2)_:
+1 o(2)
-1 m_3
<= 0

c_u_binarize_4_2(3)_:
+1 o(3)
-1 m_3
<= 0

c_u_binarize_4_2(4)_:
+1 o(4)
-1 m_3
<= 0

c_u_binarize_4_2(5)_:
+1 o(5)
-1 m_3
<= 0

c_u_binarize_4_2(6)_:
+1 o(6)
-1 m_3
<= 0

c_u_binarize_4_2(7)_:
+1 o(7)
-1 m_3
<= 0

c_u_binarize_4_3(0)_:
+1 o(0)
<= 28389.2787526407

c_u_binarize_4_3(1)_:
+1 o(1)
<= 28389.2787526407

c_u_binarize_4_3(2)_:
+1 o(2)
<= 28389.2787526407

c_u_binarize_4_3(3)_:
+1 o(3)
<= 28389.2787526407

c_u_binarize_4_3(4)_:
+1 o(4)
<= -0.0

c_u_binarize_4_3(5)_:
+1 o(5)
<= 28389.2787526407

c_u_binarize_4_3(6)_:
+1 o(6)
<= -0.0

c_u_binarize_4_3(7)_:
+1 o(7)
<= 0.0

c_u_binarize_4_4(0)_:
-1 o(0)
+1 m_3
<= 0

c_u_binarize_4_4(1)_:
-1 o(1)
+1 m_3
<= 0

c_u_binarize_4_4(2)_:
-1 o(2)
+1 m_3
<= 0

c_u_binarize_4_4(3)_:
-1 o(3)
+1 m_3
<= 0

c_u_binarize_4_4(4)_:
-1 o(4)
+1 m_3
<= 28389.2787526407

c_u_binarize_4_4(5)_:
-1 o(5)
+1 m_3
<= 0

c_u_binarize_4_4(6)_:
-1 o(6)
+1 m_3
<= 28389.2787526407

c_u_binarize_4_4(7)_:
-1 o(7)
+1 m_3
<= 28389.2787526407

c_e_dummy_4_1_:
+41.82734140050823 Q_da
+99.2150319380103 u
+1 w(0)
+2 w(1)
+4 w(2)
+8 w(3)
+16 w(4)
+32 w(5)
+64 w(6)
+1 m_4_1
= 0

c_e_dummy_4_2_:
-1 h(0)
-2 h(1)
-4 h(2)
-8 h(3)
-16 h(4)
-32 h(5)
-64 h(6)
-99.2150319380103 m_1
+1 k(0)
+2 k(1)
+4 k(2)
+8 k(3)
+16 k(4)
+32 k(5)
+64 k(6)
+99.2150319380103 m_2
+1 m_4_2
= 0

c_u_minmax_1_1_:
-1 Q_da
+1 m_1
<= 0

c_u_minmax_1_2_:
-1 q_rt
+1 m_1
<= 0

c_u_minmax_1_3_:
+1 Q_da
-1 m_1
+28389.2787526407 n_1
<= 28389.2787526407

c_u_minmax_1_4_:
+1 q_rt
-1 m_1
-28389.2787526407 n_1
<= 0

c_u_minmax_2_1_:
-1 u
+1 m_2
<= 0

c_u_minmax_2_2_:
-1 q_rt
+1 m_2
<= 0

c_u_minmax_2_3_:
+1 u
-1 m_2
+28389.2787526407 n_2
<= 28389.2787526407

c_u_minmax_2_4_:
+1 q_rt
-1 m_2
-28389.2787526407 n_2
<= 0

c_u_minmax_3_1_:
+1 u
-1 Q_c
-1 m_3
<= 0

c_l_minmax_3_2_:
+1 m_3
>= 0

c_u_minmax_3_3_:
-1 u
+1 Q_c
+1 m_3
+56778.5575052814 n_3
<= 56778.5575052814

c_u_minmax_3_4_:
+1 m_3
-28389.2787526407 n_3
<= 0

c_u_minmax_4_1_:
+1 m_4_1
-1 m_4_3
<= 0

c_u_minmax_4_2_:
+1 m_4_2
-1 m_4_3
<= 0

c_u_minmax_4_3_:
-1 m_4_1
+1 m_4_3
+14179662.249344382 n_4_3
<= 14179662.249344382

c_u_minmax_4_4_:
-1 m_4_2
+1 m_4_3
-7904428.696491905 n_4_3
<= 0

c_u_minmax_4_5_:
+1 m_4_3
-1 m_4
<= 0

c_l_minmax_4_6_:
+1 m_4
>= 0

c_u_minmax_4_7_:
+1 m_4
+5087785.49835158 n_4
<= 5087785.49835158

c_u_minmax_4_8_:
-1 m_4_3
+1 m_4
-5087785.49835158 n_4
<= 0

c_e_settlement_fcn_:
-41.82734140050823 Q_da
-179.2150319380103 u
+1 o(0)
+2 o(1)
+4 o(2)
+8 o(3)
+16 o(4)
+32 o(5)
+64 o(6)
+99.2150319380103 m_3
-1 m_4
+1 f_prime
= 0

c_e_settlement_fcn_1_:
-1 Q_da
-1 Q_rt
+1 Q_sum
= 0

c_u_settlement_fcn_2_:
+1 Q_sum
-56778.5575052814 n_sum
<= 0

c_u_settlement_fcn_3_:
-1 Q_sum
+1e-19 n_sum
<= 0

c_l_settlement_fcn_4_:
+1 f
>= 0

c_u_settlement_fcn_5_:
+1 f
-1 f_prime
<= 0

c_u_settlement_fcn_6_:
+1 f
-10800000 n_sum
<= 0

c_u_settlement_fcn_7_:
-1 f
+1 f_prime
+10800000 n_sum
<= 10800000

c_u_value_fcn_approx(0)_:
+1 theta
<= 32400000

c_u_value_fcn_approx(1)_:
+1 theta
-57.66054343880191 b_S(0)
-922.5686950208305 b_S(4)
-3690.274780083322 b_S(6)
-7380.549560166644 b_S(7)
-59044.396481333155 b_S(10)
-1889420.687402661 b_S(15)
-3778841.374805322 b_S(16)
-10006.79809961416 b_b(0_0)
-20013.59619922832 b_b(0_1)
-40027.19239845664 b_b(0_2)
-80054.38479691328 b_b(0_3)
-160108.76959382655 b_b(0_4)
-320217.5391876531 b_b(0_5)
-640435.0783753062 b_b(0_6)
-1280870.1567506124 b_b(0_7)
-10732.069622625957 b_b(1_0)
-21464.139245251914 b_b(1_1)
-42928.27849050383 b_b(1_2)
-85856.55698100766 b_b(1_3)
-171713.1139620153 b_b(1_4)
-343426.2279240306 b_b(1_5)
-686852.4558480612 b_b(1_6)
-1373704.9116961225 b_b(1_7)
-8843.850118513892 b_b(2_0)
-17687.700237027784 b_b(2_1)
-35375.40047405557 b_b(2_2)
-70750.80094811114 b_b(2_3)
-141501.60189622227 b_b(2_4)
-283003.20379244455 b_b(2_5)
-566006.4075848891 b_b(2_6)
-1132012.8151697782 b_b(2_7)
-58.16936347059206 b_Q(0_0)
-116.33872694118412 b_Q(0_1)
-232.67745388236824 b_Q(0_2)
-465.3549077647365 b_Q(0_3)
-930.709815529473 b_Q(0_4)
-1861.419631058946 b_Q(0_5)
-3722.839262117892 b_Q(0_6)
-7445.678524235784 b_Q(0_7)
-14891.357048471567 b_Q(0_8)
-29782.714096943135 b_Q(0_9)
-59565.42819388627 b_Q(0_10)
-119130.85638777254 b_Q(0_11)
-238261.71277554508 b_Q(0_12)
-476523.42555109016 b_Q(0_13)
-953046.8511021803 b_Q(0_14)
-61.99415397444028 b_Q(1_0)
-123.98830794888056 b_Q(1_1)
-247.97661589776112 b_Q(1_2)
-495.95323179552224 b_Q(1_3)
-991.9064635910445 b_Q(1_4)
-1983.812927182089 b_Q(1_5)
-3967.625854364178 b_Q(1_6)
-7935.251708728356 b_Q(1_7)
-15870.503417456712 b_Q(1_8)
-31741.006834913424 b_Q(1_9)
-63482.01366982685 b_Q(1_10)
-126964.0273396537 b_Q(1_11)
-253928.0546793074 b_Q(1_12)
-507856.1093586148 b_Q(1_13)
-1015712.2187172296 b_Q(1_14)
-110.78579265735489 b_q_rt(0)
-221.57158531470978 b_q_rt(1)
-443.14317062941956 b_q_rt(2)
-886.2863412588391 b_q_rt(3)
-1772.5726825176782 b_q_rt(4)
-3545.1453650353565 b_q_rt(5)
-7090.290730070713 b_q_rt(6)
-14180.581460141426 b_q_rt(7)
-28361.16292028285 b_q_rt(8)
-56722.3258405657 b_q_rt(9)
-113444.6516811314 b_q_rt(10)
-226889.3033622628 b_q_rt(11)
-453778.6067245256 b_q_rt(12)
-907557.2134490513 b_q_rt(13)
-1815114.4268981025 b_q_rt(14)
-3630228.853796205 b_q_rt(15)
-7260457.70759241 b_q_rt(16)
-59.65582764891784 b_E(0)
-119.31165529783569 b_E(1)
-477.24662119134274 b_E(3)
-61087.56751249187 b_E(10)
-488700.54009993497 b_E(13)
-977401.0801998699 b_E(14)
<= 16135668.501580093

bounds
   -inf <= theta <= +inf
   -inf <= f <= +inf
   -80 <= b_da <= 0
   -80 <= b_rt_next <= 0
   0 <= Q_da <= +inf
   -80 <= b_rt <= 0
   0 <= q_rt <= +inf
   0 <= E_1 <= +inf
   0 <= b_S(0) <= 1
   0 <= b_S(1) <= 1
   0 <= b_S(2) <= 1
   0 <= b_S(3) <= 1
   0 <= b_S(4) <= 1
   0 <= b_S(5) <= 1
   0 <= b_S(6) <= 1
   0 <= b_S(7) <= 1
   0 <= b_S(8) <= 1
   0 <= b_S(9) <= 1
   0 <= b_S(10) <= 1
   0 <= b_S(11) <= 1
   0 <= b_S(12) <= 1
   0 <= b_S(13) <= 1
   0 <= b_S(14) <= 1
   0 <= b_S(15) <= 1
   0 <= b_S(16) <= 1
   0 <= c <= 21022.1
   0 <= d <= 21022.1
   0 <= b_b(0_0) <= 1
   0 <= b_b(0_1) <= 1
   0 <= b_b(0_2) <= 1
   0 <= b_b(0_3) <= 1
   0 <= b_b(0_4) <= 1
   0 <= b_b(0_5) <= 1
   0 <= b_b(0_6) <= 1
   0 <= b_b(0_7) <= 1
   0 <= b_b(1_0) <= 1
   0 <= b_b(1_1) <= 1
   0 <= b_b(1_2) <= 1
   0 <= b_b(1_3) <= 1
   0 <= b_b(1_4) <= 1
   0 <= b_b(1_5) <= 1
   0 <= b_b(1_6) <= 1
   0 <= b_b(1_7) <= 1
   0 <= b_b(2_0) <= 1
   0 <= b_b(2_1) <= 1
   0 <= b_b(2_2) <= 1
   0 <= b_b(2_3) <= 1
   0 <= b_b(2_4) <= 1
   0 <= b_b(2_5) <= 1
   0 <= b_b(2_6) <= 1
   0 <= b_b(2_7) <= 1
   0 <= b_Q(0_0) <= 1
   0 <= b_Q(0_1) <= 1
   0 <= b_Q(0_2) <= 1
   0 <= b_Q(0_3) <= 1
   0 <= b_Q(0_4) <= 1
   0 <= b_Q(0_5) <= 1
   0 <= b_Q(0_6) <= 1
   0 <= b_Q(0_7) <= 1
   0 <= b_Q(0_8) <= 1
   0 <= b_Q(0_9) <= 1
   0 <= b_Q(0_10) <= 1
   0 <= b_Q(0_11) <= 1
   0 <= b_Q(0_12) <= 1
   0 <= b_Q(0_13) <= 1
   0 <= b_Q(0_14) <= 1
   0 <= b_Q(1_0) <= 1
   0 <= b_Q(1_1) <= 1
   0 <= b_Q(1_2) <= 1
   0 <= b_Q(1_3) <= 1
   0 <= b_Q(1_4) <= 1
   0 <= b_Q(1_5) <= 1
   0 <= b_Q(1_6) <= 1
   0 <= b_Q(1_7) <= 1
   0 <= b_Q(1_8) <= 1
   0 <= b_Q(1_9) <= 1
   0 <= b_Q(1_10) <= 1
   0 <= b_Q(1_11) <= 1
   0 <= b_Q(1_12) <= 1
   0 <= b_Q(1_13) <= 1
   0 <= b_Q(1_14) <= 1
   0 <= b_Q(2_0) <= 1
   0 <= b_Q(2_1) <= 1
   0 <= b_Q(2_2) <= 1
   0 <= b_Q(2_3) <= 1
   0 <= b_Q(2_4) <= 1
   0 <= b_Q(2_5) <= 1
   0 <= b_Q(2_6) <= 1
   0 <= b_Q(2_7) <= 1
   0 <= b_Q(2_8) <= 1
   0 <= b_Q(2_9) <= 1
   0 <= b_Q(2_10) <= 1
   0 <= b_Q(2_11) <= 1
   0 <= b_Q(2_12) <= 1
   0 <= b_Q(2_13) <= 1
   0 <= b_Q(2_14) <= 1
   0 <= b_q(0) <= 1
   0 <= b_q(1) <= 1
   0 <= b_q(2) <= 1
   0 <= b_q(3) <= 1
   0 <= b_q(4) <= 1
   0 <= b_q(5) <= 1
   0 <= b_q(6) <= 1
   0 <= b_q(7) <= 1
   0 <= b_q(8) <= 1
   0 <= b_q(9) <= 1
   0 <= b_q(10) <= 1
   0 <= b_q(11) <= 1
   0 <= b_q(12) <= 1
   0 <= b_q(13) <= 1
   0 <= b_q(14) <= 1
   0 <= b_q(15) <= 1
   0 <= b_q(16) <= 1
   0 <= q_rt_next <= +inf
   0 <= b_b_rt(0) <= 1
   0 <= b_b_rt(1) <= 1
   0 <= b_b_rt(2) <= 1
   0 <= b_b_rt(3) <= 1
   0 <= b_b_rt(4) <= 1
   0 <= b_b_rt(5) <= 1
   0 <= b_b_rt(6) <= 1
   0 <= b_b_rt(7) <= 1
   0 <= b_q_rt(0) <= 1
   0 <= b_q_rt(1) <= 1
   0 <= b_q_rt(2) <= 1
   0 <= b_q_rt(3) <= 1
   0 <= b_q_rt(4) <= 1
   0 <= b_q_rt(5) <= 1
   0 <= b_q_rt(6) <= 1
   0 <= b_q_rt(7) <= 1
   0 <= b_q_rt(8) <= 1
   0 <= b_q_rt(9) <= 1
   0 <= b_q_rt(10) <= 1
   0 <= b_q_rt(11) <= 1
   0 <= b_q_rt(12) <= 1
   0 <= b_q_rt(13) <= 1
   0 <= b_q_rt(14) <= 1
   0 <= b_q_rt(15) <= 1
   0 <= b_q_rt(16) <= 1
   0 <= b_E(0) <= 1
   0 <= b_E(1) <= 1
   0 <= b_E(2) <= 1
   0 <= b_E(3) <= 1
   0 <= b_E(4) <= 1
   0 <= b_E(5) <= 1
   0 <= b_E(6) <= 1
   0 <= b_E(7) <= 1
   0 <= b_E(8) <= 1
   0 <= b_E(9) <= 1
   0 <= b_E(10) <= 1
   0 <= b_E(11) <= 1
   0 <= b_E(12) <= 1
   0 <= b_E(13) <= 1
   0 <= b_E(14) <= 1
   0 <= g <= +inf
   0 <= u <= +inf
   0 <= n_rt <= 1
   0 <= Q_rt <= +inf
   0 <= Q_c <= +inf
   -inf <= w(0) <= +inf
   -inf <= w(1) <= +inf
   -inf <= w(2) <= +inf
   -inf <= w(3) <= +inf
   -inf <= w(4) <= +inf
   -inf <= w(5) <= +inf
   -inf <= w(6) <= +inf
   -inf <= w(7) <= +inf
   -inf <= h(0) <= +inf
   -inf <= h(1) <= +inf
   -inf <= h(2) <= +inf
   -inf <= h(3) <= +inf
   -inf <= h(4) <= +inf
   -inf <= h(5) <= +inf
   -inf <= h(6) <= +inf
   -inf <= h(7) <= +inf
   0 <= m_1 <= +inf
   -inf <= k(0) <= +inf
   -inf <= k(1) <= +inf
   -inf <= k(2) <= +inf
   -inf <= k(3) <= +inf
   -inf <= k(4) <= +inf
   -inf <= k(5) <= +inf
   -inf <= k(6) <= +inf
   -inf <= k(7) <= +inf
   0 <= m_2 <= +inf
   -inf <= o(0) <= +inf
   -inf <= o(1) <= +inf
   -inf <= o(2) <= +inf
   -inf <= o(3) <= +inf
   -inf <= o(4) <= +inf
   -inf <= o(5) <= +inf
   -inf <= o(6) <= +inf
   -inf <= o(7) <= +inf
   -inf <= m_3 <= +inf
   -inf <= m_4_1 <= +inf
   -inf <= m_4_2 <= +inf
   0 <= n_1 <= 1
   0 <= n_2 <= 1
   0 <= n_3 <= 1
   -inf <= m_4_3 <= +inf
   0 <= n_4_3 <= 1
   -inf <= m_4 <= +inf
   0 <= n_4 <= 1
   -inf <= f_prime <= +inf
   0 <= Q_sum <= +inf
   0 <= n_sum <= 1
binary
  b_S(0)
  b_S(1)
  b_S(2)
  b_S(3)
  b_S(4)
  b_S(5)
  b_S(6)
  b_S(7)
  b_S(8)
  b_S(9)
  b_S(10)
  b_S(11)
  b_S(12)
  b_S(13)
  b_S(14)
  b_S(15)
  b_S(16)
  b_b(0_0)
  b_b(0_1)
  b_b(0_2)
  b_b(0_3)
  b_b(0_4)
  b_b(0_5)
  b_b(0_6)
  b_b(0_7)
  b_b(1_0)
  b_b(1_1)
  b_b(1_2)
  b_b(1_3)
  b_b(1_4)
  b_b(1_5)
  b_b(1_6)
  b_b(1_7)
  b_b(2_0)
  b_b(2_1)
  b_b(2_2)
  b_b(2_3)
  b_b(2_4)
  b_b(2_5)
  b_b(2_6)
  b_b(2_7)
  b_Q(0_0)
  b_Q(0_1)
  b_Q(0_2)
  b_Q(0_3)
  b_Q(0_4)
  b_Q(0_5)
  b_Q(0_6)
  b_Q(0_7)
  b_Q(0_8)
  b_Q(0_9)
  b_Q(0_10)
  b_Q(0_11)
  b_Q(0_12)
  b_Q(0_13)
  b_Q(0_14)
  b_Q(1_0)
  b_Q(1_1)
  b_Q(1_2)
  b_Q(1_3)
  b_Q(1_4)
  b_Q(1_5)
  b_Q(1_6)
  b_Q(1_7)
  b_Q(1_8)
  b_Q(1_9)
  b_Q(1_10)
  b_Q(1_11)
  b_Q(1_12)
  b_Q(1_13)
  b_Q(1_14)
  b_Q(2_0)
  b_Q(2_1)
  b_Q(2_2)
  b_Q(2_3)
  b_Q(2_4)
  b_Q(2_5)
  b_Q(2_6)
  b_Q(2_7)
  b_Q(2_8)
  b_Q(2_9)
  b_Q(2_10)
  b_Q(2_11)
  b_Q(2_12)
  b_Q(2_13)
  b_Q(2_14)
  b_q(0)
  b_q(1)
  b_q(2)
  b_q(3)
  b_q(4)
  b_q(5)
  b_q(6)
  b_q(7)
  b_q(8)
  b_q(9)
  b_q(10)
  b_q(11)
  b_q(12)
  b_q(13)
  b_q(14)
  b_q(15)
  b_q(16)
  b_b_rt(0)
  b_b_rt(1)
  b_b_rt(2)
  b_b_rt(3)
  b_b_rt(4)
  b_b_rt(5)
  b_b_rt(6)
  b_b_rt(7)
  b_q_rt(0)
  b_q_rt(1)
  b_q_rt(2)
  b_q_rt(3)
  b_q_rt(4)
  b_q_rt(5)
  b_q_rt(6)
  b_q_rt(7)
  b_q_rt(8)
  b_q_rt(9)
  b_q_rt(10)
  b_q_rt(11)
  b_q_rt(12)
  b_q_rt(13)
  b_q_rt(14)
  b_q_rt(15)
  b_q_rt(16)
  b_E(0)
  b_E(1)
  b_E(2)
  b_E(3)
  b_E(4)
  b_E(5)
  b_E(6)
  b_E(7)
  b_E(8)
  b_E(9)
  b_E(10)
  b_E(11)
  b_E(12)
  b_E(13)
  b_E(14)
  n_rt
  n_1
  n_2
  n_3
  n_4_3
  n_4
  n_sum
end
